NAME : portgen-16-9
COMMENT : portgen N=16, seed=9
TYPE : TSP
DIMENSION : 16
EDGE_WEIGHT_TYPE : EUC_2D
NODE_COORD_SECTION
1 700201 849072
2 490958 817370
3 588316 725976
4 42637 6036
5 418389 999104
6 845134 677053
7 248841 510193
8 132630 795628
9 456974 69028
10 350169 523528
11 25138 874444
12 907202 132077
13 19931 999382
14 242387 902061
15 728333 741534
16 211556 254227
